DIMACS2
80 207 147 23 256 298 170 55 297 28 11 89 74 140 294 91 135 305 197 123 31 300 76 268 106 17 104 307 311 290 61 244 19 49 21 93 87 105 158 186 192 258 257 69 127 59 120 63 150 221 85 292 267 133 78 50 156 208 96 250 177 223 226 73 252 136 30 148 260 3 273 33 178 175 246 222 183 309 216 40 70
p edge 320 1338
e 0 245 1.0
e 1 161 1.0
e 2 17 14.0
e 3 242 36.0
e 3 65 47.0
e 3 159 32.0
e 3 288 13.0
e 3 294 27.0
e 3 235 31.0
e 3 260 47.0
e 3 202 11.0
e 3 205 2.0
e 3 40 36.0
e 3 14 4.0
e 3 170 21.0
e 3 101 29.0
e 3 97 15.0
e 3 149 8.0
e 3 87 18.0
e 4 271 1.0
e 5 297 24.0
e 6 218 1.0
e 7 246 35.0
e 8 174 1.0
e 9 72 2.0
e 9 284 1.0
e 10 117 1.0
e 11 74 41.0
e 11 19 13.0
e 11 220 37.0
e 11 35 31.0
e 11 256 37.0
e 11 255 9.0
e 11 25 43.0
e 11 120 6.0
e 11 79 7.0
e 11 23 34.0
e 11 121 24.0
e 11 58 36.0
e 11 207 47.0
e 11 265 23.0
e 11 122 37.0
e 11 76 38.0
e 12 268 41.0
e 13 168 1.0
e 14 240 5.0
e 15 250 9.0
e 15 249 6.0
e 15 288 8.0
e 15 237 11.0
e 15 110 4.0
e 16 306 1.0
e 16 293 1.0
e 16 101 2.0
e 16 4 1.0
e 17 249 46.0
e 17 186 35.0
e 17 293 27.0
e 17 78 31.0
e 17 222 28.0
e 17 114 25.0
e 17 191 8.0
e 17 167 1.0
e 17 193 33.0
e 17 100 17.0
e 17 163 11.0
e 17 21 48.0
e 17 93 48.0
e 17 107 38.0
e 17 147 23.0
e 17 190 34.0
e 18 119 1.0
e 19 143 29.0
e 19 299 13.0
e 19 169 5.0
e 19 315 44.0
e 19 172 22.0
e 19 93 30.0
e 19 295 39.0
e 19 82 32.0
e 19 75 30.0
e 19 285 16.0
e 19 36 17.0
e 19 290 11.0
e 19 153 3.0
e 19 220 26.0
e 19 59 41.0
e 19 307 16.0
e 20 91 45.0
e 20 285 2.0
e 20 137 4.0
e 20 189 9.0
e 20 188 3.0
e 21 40 27.0
e 21 0 29.0
e 21 233 16.0
e 21 135 42.0
e 21 180 32.0
e 21 161 27.0
e 21 187 43.0
e 21 217 26.0
e 21 246 28.0
e 21 167 8.0
e 21 248 21.0
e 21 76 49.0
e 21 307 3.0
e 21 204 7.0
e 21 14 47.0
e 21 103 15.0
e 22 221 34.0
e 23 231 22.0
e 23 37 49.0
e 23 61 3.0
e 23 269 17.0
e 23 58 2.0
e 23 307 8.0
e 23 49 35.0
e 23 191 16.0
e 23 8 29.0
e 23 96 47.0
e 23 2 7.0
e 23 44 49.0
e 23 83 20.0
e 23 173 13.0
e 23 174 5.0
e 23 190 24.0
e 24 83 1.0
e 25 34 2.0
e 26 132 1.0
e 26 138 1.0
e 27 231 1.0
e 27 124 1.0
e 28 4 10.0
e 28 189 17.0
e 28 2 12.0
e 28 116 18.0
e 28 101 45.0
e 28 135 28.0
e 28 103 16.0
e 28 302 39.0
e 28 256 2.0
e 28 102 25.0
e 28 286 21.0
e 28 16 33.0
e 28 71 28.0
e 28 222 25.0
e 28 281 31.0
e 29 271 2.0
e 29 264 2.0
e 30 76 19.0
e 30 183 22.0
e 30 94 48.0
e 30 102 10.0
e 30 110 29.0
e 30 179 35.0
e 30 67 38.0
e 30 288 35.0
e 30 73 10.0
e 30 7 26.0
e 30 258 35.0
e 30 31 22.0
e 30 13 5.0
e 30 87 43.0
e 30 5 35.0
e 30 47 47.0
e 31 125 14.0
e 31 69 42.0
e 31 117 2.0
e 31 169 2.0
e 31 210 13.0
e 31 280 41.0
e 31 172 21.0
e 31 199 30.0
e 31 132 34.0
e 31 12 20.0
e 31 19 28.0
e 31 80 41.0
e 31 309 43.0
e 31 200 46.0
e 31 29 48.0
e 32 265 1.0
e 33 258 9.0
e 33 312 9.0
e 33 1 26.0
e 33 162 43.0
e 33 109 37.0
e 33 129 20.0
e 33 63 36.0
e 33 292 44.0
e 33 72 38.0
e 33 278 37.0
e 33 126 24.0
e 33 47 10.0
e 33 202 12.0
e 33 137 5.0
e 33 283 31.0
e 34 195 2.0
e 35 107 1.0
e 36 182 1.0
e 37 100 2.0
e 38 139 1.0
e 39 281 5.0
e 40 194 48.0
e 40 53 37.0
e 40 177 9.0
e 40 39 6.0
e 40 36 13.0
e 40 186 33.0
e 40 6 2.0
e 40 202 8.0
e 40 12 25.0
e 40 201 9.0
e 40 54 40.0
e 40 165 29.0
e 40 209 35.0
e 40 316 15.0
e 41 110 9.0
e 42 7 1.0
e 43 51 1.0
e 43 17 36.0
e 44 45 3.0
e 45 81 1.0
e 46 28 31.0
e 47 115 1.0
e 48 281 5.0
e 49 14 20.0
e 49 68 13.0
e 49 3 27.0
e 49 44 10.0
e 49 260 2.0
e 49 279 14.0
e 49 292 2.0
e 49 42 10.0
e 49 8 42.0
e 49 33 44.0
e 49 164 6.0
e 49 136 43.0
e 49 5 41.0
e 49 158 8.0
e 49 112 34.0
e 49 266 2.0
e 50 262 27.0
e 50 55 26.0
e 50 21 26.0
e 50 296 7.0
e 50 124 43.0
e 50 297 40.0
e 50 235 30.0
e 50 253 31.0
e 50 56 2.0
e 50 60 34.0
e 50 302 17.0
e 50 37 42.0
e 50 131 4.0
e 50 155 30.0
e 50 82 6.0
e 50 156 22.0
e 50 147 5.0
e 51 232 1.0
e 52 1 1.0
e 53 317 1.0
e 54 202 2.0
e 55 241 36.0
e 55 37 5.0
e 55 299 26.0
e 55 276 46.0
e 55 226 45.0
e 55 29 40.0
e 55 208 40.0
e 55 2 17.0
e 55 157 35.0
e 55 91 35.0
e 55 256 26.0
e 55 27 25.0
e 55 80 23.0
e 55 273 9.0
e 55 67 28.0
e 55 102 6.0
e 56 95 2.0
e 57 240 1.0
e 58 295 1.0
e 59 101 38.0
e 59 139 16.0
e 59 147 4.0
e 59 295 47.0
e 59 115 44.0
e 59 42 43.0
e 59 94 7.0
e 59 186 18.0
e 59 290 49.0
e 59 183 15.0
e 59 65 46.0
e 59 176 38.0
e 59 270 8.0
e 59 107 10.0
e 59 14 2.0
e 60 207 22.0
e 61 59 34.0
e 61 208 5.0
e 61 194 44.0
e 61 92 1.0
e 61 98 1.0
e 61 237 6.0
e 61 183 36.0
e 61 213 38.0
e 61 258 15.0
e 61 266 37.0
e 61 203 1.0
e 61 233 43.0
e 61 184 32.0
e 61 94 41.0
e 62 141 1.0
e 63 237 33.0
e 63 217 19.0
e 63 127 47.0
e 63 221 4.0
e 63 49 31.0
e 63 139 3.0
e 63 131 9.0
e 63 144 9.0
e 63 103 37.0
e 63 32 28.0
e 63 130 1.0
e 63 110 46.0
e 63 16 46.0
e 63 317 33.0
e 64 281 2.0
e 65 263 1.0
e 66 79 2.0
e 67 169 1.0
e 68 157 1.0
e 69 275 37.0
e 69 29 21.0
e 69 145 21.0
e 69 3 44.0
e 69 144 16.0
e 69 108 43.0
e 69 211 26.0
e 69 154 14.0
e 69 297 34.0
e 69 179 11.0
e 69 234 26.0
e 69 109 47.0
e 69 224 41.0
e 69 168 25.0
e 69 170 4.0
e 70 28 23.0
e 70 89 15.0
e 70 35 11.0
e 70 132 16.0
e 70 168 35.0
e 70 63 42.0
e 70 296 11.0
e 70 58 2.0
e 70 96 25.0
e 70 68 37.0
e 70 297 27.0
e 70 78 41.0
e 70 34 2.0
e 70 82 36.0
e 70 71 32.0
e 71 48 1.0
e 72 0 1.0
e 73 200 16.0
e 73 104 27.0
e 73 3 6.0
e 73 235 3.0
e 73 291 40.0
e 73 159 5.0
e 73 309 26.0
e 73 52 3.0
e 73 292 3.0
e 73 258 2.0
e 73 209 12.0
e 73 271 37.0
e 73 296 27.0
e 73 123 4.0
e 73 19 6.0
e 74 280 27.0
e 74 25 27.0
e 74 236 31.0
e 74 279 17.0
e 74 133 29.0
e 74 89 28.0
e 74 221 47.0
e 74 224 32.0
e 74 297 29.0
e 74 201 5.0
e 74 238 31.0
e 74 77 14.0
e 74 75 48.0
e 74 52 5.0
e 74 310 32.0
e 75 104 22.0
e 76 258 38.0
e 76 18 6.0
e 76 53 49.0
e 76 63 27.0
e 76 64 38.0
e 76 253 20.0
e 76 298 9.0
e 76 236 38.0
e 76 114 2.0
e 76 250 3.0
e 76 314 35.0
e 76 65 43.0
e 76 98 38.0
e 76 268 20.0
e 77 2 1.0
e 78 100 43.0
e 78 277 18.0
e 78 256 23.0
e 78 302 36.0
e 78 49 34.0
e 78 247 24.0
e 78 189 23.0
e 78 246 6.0
e 78 6 34.0
e 78 226 11.0
e 78 282 30.0
e 78 278 6.0
e 79 127 12.0
e 80 111 1.0
e 81 279 2.0
e 82 81 1.0
e 83 210 2.0
e 84 31 33.0
e 85 98 37.0
e 85 150 1.0
e 85 198 45.0
e 85 114 34.0
e 85 59 12.0
e 85 261 29.0
e 85 170 34.0
e 85 190 19.0
e 85 23 26.0
e 85 314 6.0
e 85 69 26.0
e 85 108 7.0
e 85 253 39.0
e 85 304 35.0
e 85 13 27.0
e 86 264 1.0
e 87 158 8.0
e 87 98 8.0
e 87 272 12.0
e 87 38 43.0
e 87 287 45.0
e 87 120 16.0
e 87 146 21.0
e 87 182 13.0
e 87 283 31.0
e 87 252 3.0
e 87 97 8.0
e 87 48 19.0
e 88 245 1.0
e 89 170 7.0
e 89 108 6.0
e 89 192 30.0
e 89 187 3.0
e 89 71 15.0
e 89 164 20.0
e 89 196 32.0
e 89 134 45.0
e 89 92 38.0
e 89 5 15.0
e 89 299 48.0
e 89 64 35.0
e 89 104 20.0
e 90 261 1.0
e 90 141 1.0
e 91 243 11.0
e 91 85 29.0
e 91 59 39.0
e 91 53 41.0
e 91 280 43.0
e 91 110 41.0
e 91 259 10.0
e 91 308 38.0
e 91 246 17.0
e 91 304 12.0
e 91 27 38.0
e 91 297 42.0
e 91 77 21.0
e 91 193 21.0
e 91 214 16.0
e 92 188 2.0
e 93 36 19.0
e 93 59 7.0
e 93 118 2.0
e 93 104 39.0
e 93 6 11.0
e 93 225 39.0
e 93 229 40.0
e 93 313 33.0
e 93 14 43.0
e 93 307 2.0
e 93 157 8.0
e 93 150 1.0
e 93 188 1.0
e 94 46 2.0
e 95 251 1.0
e 96 89 7.0
e 96 104 36.0
e 96 178 40.0
e 96 302 11.0
e 96 105 27.0
e 96 55 8.0
e 96 307 33.0
e 96 98 17.0
e 96 80 12.0
e 96 258 33.0
e 96 99 23.0
e 96 114 28.0
e 96 272 27.0
e 96 285 14.0
e 96 106 13.0
e 97 144 1.0
e 98 304 7.0
e 99 129 1.0
e 100 224 1.0
e 101 60 2.0
e 102 213 1.0
e 103 200 1.0
e 104 226 20.0
e 104 176 39.0
e 104 111 14.0
e 104 149 40.0
e 104 92 45.0
e 104 272 10.0
e 104 153 26.0
e 104 98 8.0
e 104 210 31.0
e 104 147 49.0
e 104 284 4.0
e 104 105 6.0
e 105 216 43.0
e 105 269 18.0
e 105 262 42.0
e 105 150 27.0
e 105 165 26.0
e 105 204 18.0
e 105 186 45.0
e 105 153 31.0
e 105 238 16.0
e 105 248 30.0
e 105 63 7.0
e 105 127 21.0
e 105 303 5.0
e 105 249 25.0
e 105 214 5.0
e 106 170 49.0
e 106 98 33.0
e 106 281 36.0
e 106 287 26.0
e 106 115 11.0
e 106 78 49.0
e 106 18 3.0
e 106 87 4.0
e 106 195 34.0
e 106 12 26.0
e 106 152 16.0
e 106 38 34.0
e 106 99 1.0
e 106 276 26.0
e 107 245 1.0
e 108 77 1.0
e 109 255 2.0
e 110 244 8.0
e 111 225 1.0
e 112 56 1.0
e 113 299 1.0
e 114 212 1.0
e 115 119 1.0
e 116 78 17.0
e 117 33 23.0
e 118 24 1.0
e 119 271 2.0
e 120 197 11.0
e 120 140 21.0
e 120 228 14.0
e 120 282 37.0
e 120 122 45.0
e 120 13 34.0
e 120 28 31.0
e 120 88 31.0
e 120 138 12.0
e 120 278 44.0
e 120 60 41.0
e 120 270 43.0
e 120 178 46.0
e 120 238 42.0
e 120 300 5.0
e 121 18 1.0
e 122 119 1.0
e 123 99 44.0
e 123 128 27.0
e 123 72 37.0
e 123 252 43.0
e 123 286 33.0
e 123 8 25.0
e 123 74 18.0
e 123 172 24.0
e 123 60 42.0
e 123 61 37.0
e 123 314 43.0
e 123 9 22.0
e 123 247 34.0
e 123 259 37.0
e 123 189 43.0
e 123 130 48.0
e 124 33 39.0
e 125 129 2.0
e 126 57 1.0
e 127 223 31.0
e 127 286 28.0
e 127 88 28.0
e 127 118 6.0
e 127 134 47.0
e 127 238 10.0
e 127 128 11.0
e 127 19 42.0
e 127 15 19.0
e 127 220 2.0
e 127 49 36.0
e 127 150 4.0
e 127 192 34.0
e 127 90 34.0
e 128 176 1.0
e 129 111 1.0
e 130 245 4.0
e 131 237 2.0
e 132 74 29.0
e 133 208 24.0
e 133 73 18.0
e 133 105 37.0
e 133 234 25.0
e 133 301 5.0
e 133 52 14.0
e 133 274 40.0
e 133 38 42.0
e 133 256 36.0
e 133 216 11.0
e 133 303 1.0
e 133 266 25.0
e 133 0 36.0
e 133 206 6.0
e 133 61 23.0
e 134 118 1.0
e 135 219 43.0
e 135 152 37.0
e 135 138 45.0
e 135 25 13.0
e 135 239 30.0
e 135 208 46.0
e 135 310 17.0
e 135 31 47.0
e 135 147 5.0
e 135 68 11.0
e 135 151 28.0
e 135 240 19.0
e 135 257 38.0
e 135 297 30.0
e 135 266 27.0
e 136 316 8.0
e 136 203 6.0
e 136 178 39.0
e 136 248 1.0
e 136 155 26.0
e 136 0 2.0
e 136 168 46.0
e 136 50 39.0
e 136 294 47.0
e 136 15 43.0
e 136 73 43.0
e 136 204 9.0
e 136 289 33.0
e 136 315 47.0
e 136 291 15.0
e 137 145 1.0
e 138 317 1.0
e 139 263 1.0
e 140 89 31.0
e 140 157 20.0
e 140 287 30.0
e 140 236 28.0
e 140 284 32.0
e 140 208 11.0
e 140 53 35.0
e 140 87 7.0
e 140 9 23.0
e 140 23 16.0
e 140 186 29.0
e 140 280 12.0
e 140 132 31.0
e 140 267 45.0
e 140 135 26.0
e 140 54 16.0
e 141 100 2.0
e 142 63 6.0
e 142 31 20.0
e 143 294 25.0
e 144 62 1.0
e 145 289 1.0
e 146 236 2.0
e 147 44 3.0
e 147 171 21.0
e 147 123 41.0
e 147 306 36.0
e 147 61 11.0
e 147 64 15.0
e 147 20 18.0
e 147 21 21.0
e 147 116 36.0
e 147 230 24.0
e 147 93 46.0
e 148 78 43.0
e 148 206 19.0
e 148 209 10.0
e 148 79 27.0
e 148 273 22.0
e 148 83 22.0
e 148 42 39.0
e 148 227 42.0
e 148 15 6.0
e 148 276 35.0
e 148 207 23.0
e 148 20 34.0
e 148 318 41.0
e 148 232 6.0
e 148 104 27.0
e 148 165 11.0
e 148 297 13.0
e 149 70 37.0
e 150 106 33.0
e 150 186 14.0
e 150 26 41.0
e 150 272 37.0
e 150 180 43.0
e 150 286 37.0
e 150 170 19.0
e 150 207 32.0
e 150 192 15.0
e 150 138 38.0
e 150 162 22.0
e 150 86 42.0
e 150 208 38.0
e 151 107 1.0
e 152 219 1.0
e 153 180 1.0
e 154 185 2.0
e 155 62 1.0
e 156 45 46.0
e 156 134 41.0
e 156 130 3.0
e 156 140 12.0
e 156 177 28.0
e 156 36 39.0
e 156 248 35.0
e 156 207 40.0
e 156 158 17.0
e 156 193 43.0
e 156 160 21.0
e 156 192 20.0
e 156 133 32.0
e 156 31 23.0
e 156 284 32.0
e 156 239 22.0
e 157 133 12.0
e 158 207 3.0
e 158 197 10.0
e 158 121 19.0
e 158 123 38.0
e 158 192 15.0
e 158 86 35.0
e 158 55 26.0
e 158 293 18.0
e 158 16 22.0
e 158 54 27.0
e 158 35 5.0
e 158 160 19.0
e 158 249 11.0
e 158 239 22.0
e 159 92 1.0
e 160 45 1.0
e 161 3 32.0
e 162 316 1.0
e 163 79 2.0
e 164 290 4.0
e 165 242 2.0
e 166 249 3.0
e 167 219 1.0
e 168 261 1.0
e 169 41 1.0
e 170 197 33.0
e 170 274 4.0
e 170 27 20.0
e 170 55 22.0
e 170 160 32.0
e 170 267 39.0
e 170 273 24.0
e 170 286 24.0
e 170 181 27.0
e 170 308 42.0
e 170 104 49.0
e 171 52 2.0
e 172 268 27.0
e 173 203 1.0
e 174 87 19.0
e 175 87 40.0
e 175 246 29.0
e 175 104 8.0
e 175 155 21.0
e 175 252 28.0
e 175 186 4.0
e 175 273 29.0
e 175 207 14.0
e 175 123 36.0
e 175 43 9.0
e 175 73 22.0
e 175 45 47.0
e 175 172 45.0
e 175 267 21.0
e 175 20 32.0
e 175 75 49.0
e 175 156 1.0
e 176 41 1.0
e 177 147 13.0
e 177 105 28.0
e 177 160 46.0
e 177 273 36.0
e 177 50 45.0
e 177 17 46.0
e 177 178 2.0
e 177 26 20.0
e 177 140 12.0
e 177 144 15.0
e 177 43 7.0
e 177 207 44.0
e 177 89 26.0
e 177 116 13.0
e 177 286 42.0
e 178 18 7.0
e 178 17 28.0
e 178 207 40.0
e 178 21 27.0
e 178 306 45.0
e 178 233 25.0
e 178 267 20.0
e 178 9 44.0
e 178 22 44.0
e 178 142 39.0
e 178 130 15.0
e 179 87 2.0
e 180 279 1.0
e 181 223 16.0
e 182 78 6.0
e 183 154 9.0
e 183 43 3.0
e 183 260 32.0
e 183 246 45.0
e 183 133 5.0
e 183 10 35.0
e 183 241 26.0
e 183 116 39.0
e 183 292 38.0
e 183 140 29.0
e 183 128 3.0
e 183 209 15.0
e 183 247 26.0
e 184 85 30.0
e 184 30 5.0
e 185 2 1.0
e 186 82 44.0
e 186 224 19.0
e 186 298 33.0
e 186 32 34.0
e 186 165 7.0
e 186 22 7.0
e 186 85 10.0
e 186 301 49.0
e 186 313 40.0
e 186 300 18.0
e 187 73 4.0
e 188 191 1.0
e 189 179 1.0
e 190 264 1.0
e 191 201 2.0
e 192 7 36.0
e 192 133 37.0
e 192 23 16.0
e 192 216 43.0
e 192 147 4.0
e 192 93 14.0
e 192 241 43.0
e 192 291 20.0
e 192 120 8.0
e 192 243 37.0
e 192 242 12.0
e 192 256 4.0
e 193 30 29.0
e 194 253 2.0
e 195 95 1.0
e 196 275 1.0
e 197 207 2.0
e 197 66 22.0
e 197 252 29.0
e 197 10 49.0
e 197 28 5.0
e 197 173 19.0
e 197 313 26.0
e 197 67 45.0
e 197 99 3.0
e 197 177 27.0
e 197 162 25.0
e 197 256 42.0
e 197 192 5.0
e 197 78 33.0
e 198 301 1.0
e 199 285 1.0
e 200 70 35.0
e 201 32 2.0
e 202 137 2.0
e 203 234 2.0
e 204 149 2.0
e 205 252 14.0
e 206 255 1.0
e 207 191 3.0
e 207 303 28.0
e 207 269 39.0
e 207 273 38.0
e 207 120 21.0
e 207 135 1.0
e 207 181 30.0
e 208 57 12.0
e 208 170 24.0
e 208 158 5.0
e 208 26 42.0
e 208 28 6.0
e 208 246 11.0
e 208 74 43.0
e 208 162 1.0
e 208 217 25.0
e 208 50 30.0
e 208 207 13.0
e 209 11 15.0
e 210 251 1.0
e 211 243 1.0
e 212 213 1.0
e 213 146 1.0
e 214 93 5.0
e 215 219 1.0
e 216 22 5.0
e 216 30 33.0
e 216 214 2.0
e 216 300 5.0
e 216 187 41.0
e 216 151 4.0
e 216 93 11.0
e 216 78 18.0
e 216 120 29.0
e 216 262 6.0
e 216 32 24.0
e 216 150 14.0
e 216 241 39.0
e 216 289 20.0
e 217 292 36.0
e 218 185 1.0
e 219 292 18.0
e 220 254 1.0
e 221 258 27.0
e 221 192 40.0
e 221 305 33.0
e 221 124 23.0
e 221 163 41.0
e 221 254 20.0
e 221 143 48.0
e 221 30 43.0
e 221 290 27.0
e 221 256 32.0
e 221 135 10.0
e 221 243 16.0
e 221 166 40.0
e 221 145 47.0
e 222 212 35.0
e 222 96 12.0
e 222 273 14.0
e 222 234 18.0
e 222 305 36.0
e 222 216 29.0
e 222 221 41.0
e 222 163 18.0
e 222 177 22.0
e 222 286 32.0
e 222 33 38.0
e 222 151 39.0
e 222 164 24.0
e 222 171 49.0
e 223 317 40.0
e 223 211 39.0
e 223 68 20.0
e 223 233 18.0
e 223 66 23.0
e 223 154 47.0
e 223 256 10.0
e 223 274 13.0
e 223 117 29.0
e 223 69 22.0
e 223 10 11.0
e 223 212 7.0
e 223 257 4.0
e 223 290 3.0
e 223 244 44.0
e 224 93 7.0
e 225 126 1.0
e 226 40 36.0
e 226 51 30.0
e 226 290 48.0
e 226 33 32.0
e 226 154 33.0
e 226 105 33.0
e 226 315 10.0
e 226 69 4.0
e 226 46 9.0
e 226 307 4.0
e 226 34 34.0
e 226 136 29.0
e 226 316 39.0
e 226 207 26.0
e 227 199 1.0
e 228 166 1.0
e 229 260 15.0
e 230 196 1.0
e 231 12 2.0
e 232 149 3.0
e 233 179 1.0
e 234 136 38.0
e 235 167 1.0
e 236 106 13.0
e 237 113 1.0
e 238 278 2.0
e 239 194 1.0
e 240 94 2.0
e 241 131 2.0
e 242 46 1.0
e 243 276 2.0
e 244 130 38.0
e 244 106 17.0
e 244 136 38.0
e 244 125 30.0
e 244 124 42.0
e 244 221 20.0
e 244 277 40.0
e 244 246 10.0
e 244 70 31.0
e 244 170 12.0
e 244 297 12.0
e 244 247 5.0
e 244 146 43.0
e 244 11 20.0
e 244 250 6.0
e 245 47 2.0
e 246 57 11.0
e 246 70 6.0
e 246 164 33.0
e 246 187 9.0
e 246 192 14.0
e 246 39 28.0
e 246 11 17.0
e 246 193 30.0
e 246 166 43.0
e 247 1 3.0
e 248 231 1.0
e 249 126 3.0
e 250 16 19.0
e 250 117 49.0
e 250 148 38.0
e 250 207 31.0
e 250 39 14.0
e 250 70 14.0
e 250 312 39.0
e 250 208 49.0
e 250 221 13.0
e 250 297 47.0
e 250 252 11.0
e 250 40 32.0
e 250 226 11.0
e 251 300 29.0
e 252 307 16.0
e 252 46 21.0
e 252 121 40.0
e 252 40 14.0
e 252 51 39.0
e 252 66 2.0
e 252 148 22.0
e 252 106 24.0
e 252 74 35.0
e 252 208 32.0
e 252 194 19.0
e 253 141 1.0
e 254 48 1.0
e 255 270 1.0
e 256 205 46.0
e 256 250 34.0
e 256 40 16.0
e 256 96 10.0
e 256 318 23.0
e 256 84 16.0
e 256 182 20.0
e 257 83 29.0
e 257 81 3.0
e 257 290 21.0
e 257 75 13.0
e 257 76 21.0
e 257 91 46.0
e 257 121 32.0
e 257 182 17.0
e 257 252 33.0
e 257 273 39.0
e 257 175 43.0
e 257 84 9.0
e 257 147 18.0
e 257 305 35.0
e 257 85 4.0
e 258 47 32.0
e 258 87 22.0
e 258 211 21.0
e 258 106 18.0
e 258 86 12.0
e 258 252 27.0
e 258 242 34.0
e 258 89 20.0
e 258 170 36.0
e 259 277 3.0
e 260 84 33.0
e 260 300 1.0
e 260 171 6.0
e 260 76 19.0
e 260 309 15.0
e 260 273 32.0
e 260 290 48.0
e 260 196 5.0
e 260 89 42.0
e 260 156 27.0
e 260 268 41.0
e 260 90 31.0
e 260 91 20.0
e 261 159 1.0
e 262 113 1.0
e 263 61 36.0
e 264 62 1.0
e 265 108 1.0
e 266 180 2.0
e 267 72 31.0
e 267 90 4.0
e 267 222 26.0
e 267 208 32.0
e 267 244 33.0
e 267 136 22.0
e 267 96 15.0
e 267 211 34.0
e 267 76 43.0
e 267 291 2.0
e 267 292 19.0
e 267 11 32.0
e 267 110 45.0
e 268 63 6.0
e 268 183 34.0
e 268 262 24.0
e 268 91 44.0
e 268 178 43.0
e 268 282 17.0
e 268 290 19.0
e 268 109 48.0
e 268 313 14.0
e 268 294 34.0
e 268 110 48.0
e 268 156 15.0
e 269 69 47.0
e 270 8 2.0
e 271 250 19.0
e 272 34 2.0
e 273 263 28.0
e 273 125 36.0
e 273 290 12.0
e 273 212 2.0
e 273 127 2.0
e 273 109 8.0
e 273 142 40.0
e 273 292 45.0
e 274 206 1.0
e 275 222 11.0
e 276 178 2.0
e 277 85 48.0
e 278 67 2.0
e 279 152 2.0
e 280 112 1.0
e 281 183 33.0
e 282 265 1.0
e 283 268 15.0
e 284 198 1.0
e 285 97 1.0
e 286 309 7.0
e 287 44 1.0
e 288 258 5.0
e 289 24 1.0
e 290 61 28.0
e 290 300 48.0
e 290 232 49.0
e 290 125 21.0
e 290 127 12.0
e 290 186 49.0
e 290 142 10.0
e 291 122 1.0
e 292 283 22.0
e 292 178 5.0
e 292 225 47.0
e 292 290 33.0
e 292 195 35.0
e 292 127 1.0
e 292 143 5.0
e 292 257 9.0
e 292 147 29.0
e 293 113 1.0
e 294 161 18.0
e 294 214 17.0
e 294 148 41.0
e 294 150 48.0
e 294 158 36.0
e 294 173 7.0
e 294 277 43.0
e 294 267 27.0
e 294 174 42.0
e 294 305 37.0
e 294 175 46.0
e 294 177 22.0
e 294 178 10.0
e 295 288 1.0
e 296 10 2.0
e 297 251 22.0
e 297 150 10.0
e 297 158 33.0
e 297 173 5.0
e 297 175 16.0
e 297 174 18.0
e 297 181 16.0
e 298 4 23.0
e 298 181 36.0
e 298 300 14.0
e 298 305 33.0
e 298 217 4.0
e 298 267 41.0
e 298 183 41.0
e 298 184 27.0
e 298 250 41.0
e 298 268 34.0
e 298 187 17.0
e 298 197 39.0
e 298 198 38.0
e 298 199 37.0
e 298 215 14.0
e 299 5 2.0
e 300 51 22.0
e 300 273 44.0
e 300 292 15.0
e 300 215 12.0
e 300 282 48.0
e 300 183 2.0
e 300 184 11.0
e 300 305 23.0
e 300 197 5.0
e 300 199 30.0
e 301 220 1.0
e 302 5 1.0
e 303 41 1.0
e 304 62 1.0
e 305 287 6.0
e 305 184 13.0
e 305 186 49.0
e 305 292 13.0
e 305 197 9.0
e 305 215 23.0
e 305 216 10.0
e 305 217 47.0
e 305 218 15.0
e 305 244 37.0
e 305 223 20.0
e 306 56 1.0
e 307 24 30.0
e 307 231 30.0
e 307 186 23.0
e 307 294 9.0
e 307 216 1.0
e 307 218 49.0
e 307 222 22.0
e 307 223 6.0
e 307 225 30.0
e 307 297 39.0
e 308 24 1.0
e 309 145 47.0
e 309 222 6.0
e 309 223 36.0
e 309 226 24.0
e 309 227 46.0
e 309 228 40.0
e 309 267 37.0
e 309 229 21.0
e 309 230 43.0
e 309 246 15.0
e 309 244 32.0
e 309 250 35.0
e 309 290 44.0
e 310 275 1.0
e 311 95 12.0
e 311 226 16.0
e 311 227 31.0
e 311 228 7.0
e 311 273 2.0
e 311 229 36.0
e 311 268 6.0
e 311 230 3.0
e 311 310 33.0
e 311 290 49.0
e 311 305 42.0
e 311 246 28.0
e 311 252 1.0
e 311 254 17.0
e 311 256 38.0
e 311 269 46.0
e 311 277 4.0
e 312 314 4.0
e 313 256 23.0
e 314 178 7.0
e 315 112 1.0
e 316 205 1.0
e 317 185 1.0
e 318 95 1.0
e 319 88 1.0
